c turning on binary mode checking
c parsing input formula with 202048 variables and 780975 clauses
c finished parsing, read 19452932 bytes from proof file
c detected empty clause; start verification via backward checking
c 26663 of 780975 clauses in core                            
c 38685 of 502747 lemmas in core using 335964 resolution steps
c 0 RAT lemmas in core; 3036 redundant literals in core lemmas
s VERIFIED
c verification time: 2.975 seconds
